COLUMNS

passenger_count
pickup_ID
dropoff_ID
request_time_sec
pickup_district
dropoff_district
LDuals
IDuals
vehicle_ID
pick_position
drop_position

REQUESTS_INFO
1      744       884       28869     290       290       124       124       20        1         2         
1      415       119       28866     100       286       178       178       36        1         4         
2      688       78        28861     131       9         193       193       84        1         3         
1      198       134       28864     178       9         162       162       130       1         3         
2      905       970       28863     290       290       161       161       138       1         3         
3      454       21        28883     52        98        179       179       143       1         3         
1      213       513       28873     266       199       148       148       273       1         2         
1      875       1070      28851     291       50        162.5     162.5     277       1         3         
4      440       419       28885     168       168       150       150       287       1         2         
3      839       1011      28716     290       84        361       361       288       1         2         
1      332       364       28835     87        299       188       188       297       1         2         
1      484       421       28888     189       168       115       115       298       1         2         
2      1068      923       28860     291       290       163       163       345       1         3         
3      663       694       28870     131       189       177       177       392       1         3         
1      813       741       28811     290       50        259       259       417       1         2         
4      804       961       28881     291       291       143       143       434       1         2         
1      598       371       28864     189       52        179       179       468       1         2         
1      574       624       28867     189       189       151       151       482       1         2         
1      374       606       28874     119       189       195       195       538       1         2         
1      812       698       28870     290       189       170       170       601       1         3         
1      655       905       28865     189       290       182       182       605       1         4         
1      457       416       28852     52        100       184       184       631       1         3         
1      441       398       28853     168       168       189       189       641       1         2         
1      391       432       28857     52        52        173       173       645       1         2         
3      676       633       28865     189       189       133       133       678       1         3         
1      702       580       28879     290       189       148       148       680       1         4         
1      397       576       28865     168       189       165       165       713       1         3         
1      813       991       28815     290       290       255       255       769       1         2         
2      812       812       28811     290       290       229       229       786       1         2         
1      392       578       28863     52        189       196       196       795       1         2         
3      817       769       28729     290       290       304       304       812       1         2         
4      802       1209      28862     291       192       154       154       824       1         2         
3      857       742       28827     290       290       215       215       849       1         2         
2      200       10        28865     87        98        178       178       861       1         3         
3      909       905       28809     290       290       250       250       864       1         2         
1      435       232       28873     52        266       200       200       892       1         3         
1      791       969       28869     290       290       168.5     168.5     907       1         2         
1      678       721       28862     290       290       181       181       917       1         2         
3      905       580       28845     290       189       225       225       937       1         2         
4      596       394       28801     131       100       302       302       948       1         2         
1      841       835       28875     290       290       154       154       1002      1         3         
1      859       551       28870     290       189       146       146       1007      1         3         
1      330       333       28867     127       119       204       204       1014      1         2         
1      307       324       28877     127       299       131       131       1022      1         2         
3      836       1531      28782     290       296       257       257       1033      1         2         
3      231       499       28871     266       52        127       127       1054      1         2         
1      816       602       28815     290       189       208       208       1059      1         3         
2      366       44        28853     299       98        209       209       1106      1         2         
1      970       985       28869     290       50        121       121       1130      1         2         
2      989       959       28866     50        291       149       149       1150      1         3         
2      852       673       28866     291       189       145       145       1165      1         2         
2      352       526       28854     119       52        172       172       1196      1         2         
3      481       372       28889     189       119       155       155       1212      1         2         
1      532       579       28880     199       189       115       115       1214      1         4         
3      768       605       28868     290       189       161       161       1233      1         3         
3      768       605       28868     290       189       161       161       1248      1         3         
3      792       97        28805     290       9         229       229       1258      1         3         
1      419       600       28863     168       280       152       152       1259      1         3         
1      393       419       28842     52        168       224       224       1268      1         2         
1      865       176       28870     290       174       155       155       1276      1         3         
1      945       720       28865     50        290       187       187       1387      1         3         
3      663       694       28870     131       189       177       177       1531      1         3         
2      481       372       28889     189       119       155       155       1746      1         3         
3      811       946       28821     290       290       199       199       1750      1         2         
4      794       512       28679     290       199       356       356       1751      1         2         
1      413       718       28818     52        189       160       160       1780      1         3         
2      416       502       28888     100       52        130       130       1818      1         2         
1      217       604       28858     87        189       131       131       1827      1         3         
1      937       421       28863     291       168       131.5     131.5     1852      1         3         
2      983       781       28880     291       291       144       144       1858      1         3         
1      458       576       28867     52        189       166       166       1863      1         3         
1      458       651       28872     52        189       161       161       1863      2         4         
1      463       581       28818     168       189       177       177       1869      1         4         
2      871       1045      28842     291       291       150       150       1891      1         3         
3      881       1045      28843     290       291       208       208       1892      1         3         
3      904       947       28833     290       290       208       208       1933      1         2         
1      744       580       28848     290       189       145       145       1959      1         4         
2      805       215       28860     291       178       149       149       1966      1         3         
3      512       604       28890     199       189       0         0         0         0         0         
3      512       604       28890     199       189       0         0         0         0         0         
2      207       328       28890     286       299       0         0         0         0         0         
1      560       772       28890     189       290       0         0         0         0         0         
1      578       507       28890     189       189       0         0         0         0         0         
1      1044      842       28890     291       290       0         0         0         0         0         
1      1209      1046      28890     192       291       0         0         0         0         0         
1      791       947       28890     290       290       0         0         0         0         0         
2      511       355       28890     199       119       0         0         0         0         0         
1      718       760       28890     189       291       0         0         0         0         0         
1      1153      1187      28890     50        291       0         0         0         0         0         
1      804       761       28891     291       50        0         0         0         0         0         
1      195       396       28891     207       119       0         0         0         0         0         
1      527       625       28891     52        189       0         0         0         0         0         
1      48        1012      28891     98        84        0         0         0         0         0         
1      850       939       28891     291       291       0         0         0         0         0         
3      599       570       28892     280       52        0         0         0         0         0         
2      599       570       28892     280       52        0         0         0         0         0         
1      527       438       28892     52        100       0         0         0         0         0         
1      85        314       28892     287       119       0         0         0         0         0         
1      723       1075      28892     290       84        0         0         0         0         0         
1      627       726       28892     189       290       0         0         0         0         0         
3      885       701       28894     290       290       0         0         0         0         0         
1      1225      860       28894     192       290       0         0         0         0         0         
1      200       230       28894     87        266       0         0         0         0         0         
1      237       394       28894     87        100       0         0         0         0         0         
1      373       721       28894     119       290       0         0         0         0         0         
3      885       701       28894     290       290       0         0         0         0         0         
1      827       598       28895     291       189       0         0         0         0         0         
1      46        79        28895     98        98        0         0         0         0         0         
1      333       766       28895     119       290       0         0         0         0         0         
1      415       232       28896     100       266       0         0         0         0         0         
1      628       462       28896     189       189       0         0         0         0         0         
2      864       727       28896     290       290       0         0         0         0         0         
1      606       116       28896     189       9         0         0         0         0         0         
1      842       628       28896     290       189       0         0         0         0         0         
1      673       556       28896     189       199       0         0         0         0         0         
2      703       625       28896     290       189       0         0         0         0         0         
1      473       311       28897     52        87        0         0         0         0         0         
1      1187      1542      28897     291       296       0         0         0         0         0         
1      184       259       28897     87        87        0         0         0         0         0         
1      780       728       28897     291       290       0         0         0         0         0         
1      152       292       28897     9         87        0         0         0         0         0         
3      665       267       28897     131       266       0         0         0         0         0         
3      665       267       28897     131       266       0         0         0         0         0         
1      771       170       28898     290       286       0         0         0         0         0         
1      847       578       28898     291       189       0         0         0         0         0         
3      394       358       28898     100       168       0         0         0         0         0         
3      394       358       28898     100       168       0         0         0         0         0         
1      546       689       28898     52        131       0         0         0         0         0         
1      710       19        28898     131       98        0         0         0         0         0         
1      207       325       28899     286       299       0         0         0         0         0         
1      438       1504      28899     100       296       0         0         0         0         0         
3      721       604       28900     290       189       0         0         0         0         0         
2      720       670       28900     290       280       0         0         0         0         0         
3      721       604       28900     290       189       0         0         0         0         0         
1      1207      1248      28900     192       129       0         0         0         0         0         
1      779       527       28901     131       52        0         0         0         0         0         
3      559       46        28901     189       98        0         0         0         0         0         
2      559       46        28901     189       98        0         0         0         0         0         
1      535       650       28901     189       189       0         0         0         0         0         
1      1174      1152      28901     129       291       0         0         0         0         0         
1      526       604       28901     52        189       0         0         0         0         0         
1      438       48        28901     100       98        0         0         0         0         0         
1      744       837       28901     290       290       0         0         0         0         0         
1      334       352       28902     119       119       0         0         0         0         0         
3      133       523       28902     9         52        0         0         0         0         0         
2      133       523       28902     9         52        0         0         0         0         0         
2      745       951       28902     290       290       0         0         0         0         0         
3      745       951       28902     290       290       0         0         0         0         0         
1      551       748       28902     189       290       0         0         0         0         0         
1      583       693       28902     189       280       0         0         0         0         0         
1      527       558       28903     52        189       0         0         0         0         0         
1      738       651       28903     189       189       0         0         0         0         0         
1      556       138       28903     199       57        0         0         0         0         0         
1      740       1048      28903     50        291       0         0         0         0         0         
1      310       325       28903     127       299       0         0         0         0         0         
1      735       134       28903     131       9         0         0         0         0         0         
3      788       961       28904     290       291       0         0         0         0         0         
1      228       811       28904     266       290       0         0         0         0         0         
1      435       553       28904     52        189       0         0         0         0         0         
1      937       1066      28904     291       291       0         0         0         0         0         
2      788       961       28904     290       291       0         0         0         0         0         
1      711       1074      28904     131       84        0         0         0         0         0         
1      285       116       28905     299       9         0         0         0         0         0         
1      927       969       28905     290       290       0         0         0         0         0         
1      534       779       28905     199       131       0         0         0         0         0         
1      629       559       28905     189       189       0         0         0         0         0         
1      811       990       28905     290       290       0         0         0         0         0         
2      702       968       28905     290       290       0         0         0         0         0         
1      1047      652       28905     291       189       0         0         0         0         0         
1      726       1045      28905     290       291       0         0         0         0         0         
2      947       627       28906     290       189       0         0         0         0         0         
3      947       627       28906     290       189       0         0         0         0         0         
1      345       624       28906     299       189       0         0         0         0         0         
1      959       740       28906     291       50        0         0         0         0         0         
1      835       947       28906     290       290       0         0         0         0         0         
3      527       461       28907     52        189       0         0         0         0         0         
1      458       581       28907     52        189       0         0         0         0         0         
1      621       766       28907     280       290       0         0         0         0         0         
2      527       461       28907     52        189       0         0         0         0         0         
1      771       139       28907     290       57        0         0         0         0         0         
1      1117      1236      28908     84        84        0         0         0         0         0         
1      609       332       28908     189       87        0         0         0         0         0         
4      835       11        28908     290       999       0         0         0         0         0         
1      556       116       28909     199       9         0         0         0         0         0         
1      254       632       28909     87        189       0         0         0         0         0         
1      721       811       28909     290       290       0         0         0         0         0         
3      618       694       28909     131       189       0         0         0         0         0         
3      618       694       28909     131       189       0         0         0         0         0         
1      415       116       28909     100       9         0         0         0         0         0         
1      173       1199      28910     286       84        0         0         0         0         0         
1      850       1023      28910     291       291       0         0         0         0         0         
2      835       836       28910     290       290       0         0         0         0         0         
2      863       746       28910     290       290       0         0         0         0         0         
3      863       746       28910     290       290       0         0         0         0         0         
3      372       372       28910     119       119       0         0         0         0         0         
3      372       372       28910     119       119       0         0         0         0         0         
1      230       811       28910     266       290       0         0         0         0         0         
1      462       554       28911     189       189       0         0         0         0         0         
1      745       604       28911     290       189       0         0         0         0         0         
1      791       417       28911     290       100       0         0         0         0         0         
1      861       749       28911     290       290       0         0         0         0         0         
1      416       534       28911     100       199       0         0         0         0         0         
3      463       694       28911     168       189       0         0         0         0         0         
3      391       373       28911     52        119       0         0         0         0         0         
2      463       694       28911     168       189       0         0         0         0         0         
3      333       358       28912     119       168       0         0         0         0         0         
2      333       358       28912     119       168       0         0         0         0         0         
3      749       650       28912     290       189       0         0         0         0         0         
1      608       651       28912     189       189       0         0         0         0         0         
1      783       673       28912     50        189       0         0         0         0         0         
1      864       748       28912     290       290       0         0         0         0         0         
1      959       859       28912     291       290       0         0         0         0         0         
1      479       117       28912     52        286       0         0         0         0         0         
1      376       627       28912     168       189       0         0         0         0         0         
1      1418      1075      28912     129       84        0         0         0         0         0         
1      551       717       28912     189       189       0         0         0         0         0         
3      749       650       28912     290       189       0         0         0         0         0         
1      770       887       28913     290       290       0         0         0         0         0         
2      485       482       28913     189       189       0         0         0         0         0         
3      386       691       28913     299       131       0         0         0         0         0         
1      443       676       28913     168       189       0         0         0         0         0         
1      961       600       28913     291       280       0         0         0         0         0         
3      1001      1225      28914     291       192       0         0         0         0         0         
1      735       45        28914     131       98        0         0         0         0         0         
1      393       333       28914     52        119       0         0         0         0         0         
1      442       355       28914     168       119       0         0         0         0         0         
1      438       597       28914     100       131       0         0         0         0         0         
1      769       116       28914     290       9         0         0         0         0         0         
1      857       651       28914     290       189       0         0         0         0         0         
1      719       693       28914     189       280       0         0         0         0         0         
2      1001      1225      28914     291       192       0         0         0         0         0         
1      874       352       28914     291       119       0         0         0         0         0         
1      248       331       28915     266       127       0         0         0         0         0         
1      501       247       28915     52        266       0         0         0         0         0         
1      1128      873       28915     291       291       0         0         0         0         0         
1      574       606       28916     189       189       0         0         0         0         0         
3      155       648       28916     286       189       0         0         0         0         0         
3      155       648       28916     286       189       0         0         0         0         0         
1      99        473       28916     286       52        0         0         0         0         0         
1      693       697       28916     280       189       0         0         0         0         0         
3      1087      720       28917     291       290       0         0         0         0         0         
2      1087      720       28917     291       290       0         0         0         0         0         
2      479       358       28917     52        168       0         0         0         0         0         
1      981       827       28917     291       291       0         0         0         0         0         
1      499       230       28918     52        266       0         0         0         0         0         
1      504       434       28918     52        52        0         0         0         0         0         
1      549       599       28918     52        280       0         0         0         0         0         
1      327       529       28918     299       189       0         0         0         0         0         
1      115       462       28918     9         189       0         0         0         0         0         
1      958       310       28918     291       127       0         0         0         0         0         
1      549       575       28918     52        189       0         0         0         0         0         
1      349       556       28919     127       199       0         0         0         0         0         
1      602       413       28919     189       52        0         0         0         0         0         
1      232       651       28919     266       189       0         0         0         0         0         
1      188       523       28919     286       52        0         0         0         0         0         
3      749       670       28919     290       280       0         0         0         0         0         
